unsat
( _c0
  _c100
  _c102
  _c10219
  _c10229
  _c10239
  _c10249
  _c10259
  _c10269
  _c10279
  _c10289
  _c10299
  _c103
  _c10390
  _c104
  _c105
  _c106
  _c107
  _c108
  _c109
  _c11
  _c111
  _c11152
  _c112
  _c11211
  _c11212
  _c11213
  _c11214
  _c11215
  _c11216
  _c11217
  _c11218
  _c11219
  _c11221
  _c11222
  _c11223
  _c11224
  _c11225
  _c11226
  _c11227
  _c11228
  _c11229
  _c11231
  _c11232
  _c11233
  _c11234
  _c11235
  _c11236
  _c11237
  _c11238
  _c11239
  _c11241
  _c11242
  _c11243
  _c11244
  _c11245
  _c11246
  _c11247
  _c11248
  _c11249
  _c11251
  _c11252
  _c11253
  _c11254
  _c11255
  _c11256
  _c11257
  _c11258
  _c11259
  _c11261
  _c11262
  _c11263
  _c11264
  _c11265
  _c11266
  _c11267
  _c11268
  _c11269
  _c11271
  _c11272
  _c11273
  _c11274
  _c11275
  _c11276
  _c11277
  _c11278
  _c11279
  _c11281
  _c11282
  _c11283
  _c11284
  _c11285
  _c11286
  _c11287
  _c11288
  _c11289
  _c113
  _c11337
  _c11339
  _c11340
  _c11341
  _c11342
  _c11343
  _c11344
  _c11345
  _c11346
  _c11347
  _c11348
  _c11349
  _c11350
  _c11351
  _c11352
  _c11353
  _c11354
  _c11355
  _c11356
  _c11357
  _c11358
  _c11359
  _c11360
  _c11361
  _c11362
  _c11363
  _c11364
  _c11365
  _c11366
  _c11367
  _c11368
  _c11369
  _c11370
  _c11371
  _c11372
  _c11373
  _c11374
  _c114
  _c115
  _c116
  _c117
  _c118
  _c12
  _c120
  _c121
  _c122
  _c123
  _c124
  _c125
  _c126
  _c127
  _c129
  _c13
  _c130
  _c131
  _c132
  _c133
  _c134
  _c135
  _c136
  _c138
  _c139
  _c14
  _c140
  _c141
  _c142
  _c143
  _c144
  _c145
  _c147
  _c148
  _c149
  _c15
  _c150
  _c151
  _c152
  _c153
  _c154
  _c156
  _c157
  _c158
  _c159
  _c16
  _c160
  _c161
  _c162
  _c163
  _c164
  _c166
  _c167
  _c168
  _c169
  _c17
  _c170
  _c171
  _c172
  _c173
  _c175
  _c176
  _c177
  _c178
  _c179
  _c18
  _c180
  _c181
  _c182
  _c1829
  _c1830
  _c1831
  _c1832
  _c1833
  _c1834
  _c1835
  _c1836
  _c1837
  _c184
  _c185
  _c186
  _c187
  _c188
  _c189
  _c190
  _c191
  _c193
  _c194
  _c195
  _c196
  _c197
  _c198
  _c199
  _c2
  _c20
  _c200
  _c202
  _c203
  _c204
  _c205
  _c206
  _c207
  _c208
  _c209
  _c21
  _c211
  _c212
  _c213
  _c214
  _c215
  _c216
  _c217
  _c218
  _c22
  _c220
  _c221
  _c222
  _c223
  _c224
  _c225
  _c226
  _c227
  _c229
  _c23
  _c230
  _c231
  _c232
  _c233
  _c234
  _c235
  _c236
  _c238
  _c239
  _c24
  _c240
  _c241
  _c242
  _c243
  _c244
  _c245
  _c246
  _c248
  _c249
  _c25
  _c250
  _c251
  _c252
  _c253
  _c254
  _c255
  _c257
  _c258
  _c259
  _c26
  _c260
  _c261
  _c262
  _c263
  _c264
  _c266
  _c267
  _c268
  _c269
  _c27
  _c270
  _c2703
  _c2704
  _c2705
  _c2706
  _c2707
  _c2708
  _c2709
  _c271
  _c2710
  _c2711
  _c2713
  _c2714
  _c2715
  _c2716
  _c2717
  _c2718
  _c2719
  _c272
  _c2720
  _c2721
  _c2723
  _c2724
  _c2725
  _c2726
  _c2727
  _c2728
  _c2729
  _c273
  _c2730
  _c2731
  _c2733
  _c2734
  _c2735
  _c2736
  _c2737
  _c2738
  _c2739
  _c2740
  _c2741
  _c2743
  _c2744
  _c2745
  _c2746
  _c2747
  _c2748
  _c2749
  _c275
  _c2750
  _c2751
  _c2753
  _c2754
  _c2755
  _c2756
  _c2757
  _c2758
  _c2759
  _c276
  _c2760
  _c2761
  _c2763
  _c2764
  _c2765
  _c2766
  _c2767
  _c2768
  _c2769
  _c277
  _c2770
  _c2771
  _c2773
  _c2774
  _c2775
  _c2776
  _c2777
  _c2778
  _c2779
  _c278
  _c2780
  _c2781
  _c2783
  _c2784
  _c2785
  _c2786
  _c2787
  _c2788
  _c2789
  _c279
  _c2790
  _c2791
  _c280
  _c281
  _c282
  _c284
  _c285
  _c286
  _c287
  _c288
  _c289
  _c29
  _c290
  _c2900
  _c2901
  _c2902
  _c2903
  _c2904
  _c2905
  _c2906
  _c2907
  _c2909
  _c291
  _c2910
  _c2911
  _c2916
  _c2917
  _c2918
  _c2919
  _c2920
  _c2921
  _c2922
  _c2923
  _c2924
  _c2925
  _c2926
  _c2927
  _c2928
  _c293
  _c2930
  _c2931
  _c2932
  _c2933
  _c2934
  _c2935
  _c2936
  _c2937
  _c2938
  _c2939
  _c294
  _c2940
  _c2941
  _c2942
  _c2943
  _c2944
  _c2946
  _c2947
  _c2948
  _c2949
  _c295
  _c2950
  _c2951
  _c2952
  _c2953
  _c2954
  _c2955
  _c2956
  _c2957
  _c2958
  _c2959
  _c296
  _c2960
  _c2961
  _c2962
  _c2963
  _c2964
  _c2965
  _c2966
  _c2967
  _c2968
  _c2969
  _c297
  _c2970
  _c2971
  _c298
  _c299
  _c3
  _c30
  _c300
  _c302
  _c303
  _c304
  _c305
  _c306
  _c307
  _c308
  _c309
  _c31
  _c311
  _c312
  _c313
  _c314
  _c315
  _c316
  _c317
  _c318
  _c32
  _c320
  _c321
  _c322
  _c323
  _c324
  _c325
  _c326
  _c327
  _c328
  _c33
  _c330
  _c331
  _c332
  _c333
  _c334
  _c335
  _c336
  _c337
  _c339
  _c34
  _c340
  _c341
  _c342
  _c343
  _c344
  _c345
  _c346
  _c348
  _c349
  _c35
  _c350
  _c351
  _c352
  _c353
  _c354
  _c355
  _c357
  _c358
  _c359
  _c36
  _c360
  _c361
  _c362
  _c363
  _c364
  _c366
  _c367
  _c368
  _c369
  _c370
  _c371
  _c372
  _c373
  _c375
  _c376
  _c377
  _c378
  _c379
  _c38
  _c380
  _c381
  _c382
  _c384
  _c385
  _c386
  _c3869
  _c387
  _c3873
  _c388
  _c389
  _c3893
  _c3896
  _c39
  _c390
  _c3905
  _c3907
  _c391
  _c3914
  _c3916
  _c3923
  _c393
  _c3932
  _c394
  _c3940
  _c3941
  _c395
  _c396
  _c397
  _c398
  _c399
  _c4
  _c40
  _c400
  _c402
  _c403
  _c404
  _c405
  _c406
  _c407
  _c408
  _c409
  _c41
  _c410
  _c412
  _c413
  _c414
  _c415
  _c416
  _c417
  _c418
  _c419
  _c42
  _c421
  _c422
  _c423
  _c424
  _c425
  _c426
  _c427
  _c428
  _c43
  _c430
  _c431
  _c432
  _c433
  _c434
  _c435
  _c436
  _c437
  _c439
  _c44
  _c440
  _c441
  _c442
  _c443
  _c444
  _c445
  _c446
  _c448
  _c449
  _c45
  _c450
  _c451
  _c452
  _c453
  _c454
  _c455
  _c457
  _c458
  _c459
  _c460
  _c461
  _c462
  _c463
  _c464
  _c466
  _c467
  _c468
  _c4682
  _c4683
  _c4684
  _c4685
  _c4687
  _c4688
  _c4689
  _c469
  _c4690
  _c47
  _c470
  _c471
  _c472
  _c473
  _c475
  _c476
  _c477
  _c478
  _c479
  _c48
  _c480
  _c481
  _c482
  _c484
  _c485
  _c486
  _c487
  _c488
  _c489
  _c49
  _c490
  _c491
  _c492
  _c494
  _c495
  _c496
  _c497
  _c498
  _c499
  _c5
  _c50
  _c500
  _c501
  _c503
  _c504
  _c505
  _c506
  _c507
  _c508
  _c509
  _c51
  _c510
  _c512
  _c513
  _c514
  _c515
  _c516
  _c517
  _c518
  _c519
  _c52
  _c521
  _c522
  _c523
  _c524
  _c525
  _c526
  _c527
  _c528
  _c53
  _c530
  _c531
  _c532
  _c533
  _c534
  _c535
  _c536
  _c537
  _c539
  _c54
  _c540
  _c541
  _c542
  _c543
  _c5430
  _c5431
  _c5432
  _c5433
  _c5435
  _c544
  _c5443
  _c5447
  _c5448
  _c5449
  _c545
  _c5451
  _c5456
  _c5457
  _c5459
  _c546
  _c5460
  _c5465
  _c5467
  _c5468
  _c5475
  _c5476
  _c548
  _c5483
  _c549
  _c550
  _c5502
  _c5503
  _c5504
  _c5505
  _c5506
  _c5507
  _c5509
  _c551
  _c5510
  _c5512
  _c5513
  _c5514
  _c5515
  _c5516
  _c5517
  _c5518
  _c5519
  _c552
  _c5520
  _c5522
  _c5524
  _c5525
  _c5526
  _c5527
  _c5528
  _c5529
  _c553
  _c5530
  _c5532
  _c5533
  _c5534
  _c5535
  _c5536
  _c5537
  _c5538
  _c5539
  _c554
  _c5540
  _c5542
  _c5543
  _c5544
  _c5545
  _c5546
  _c5547
  _c5548
  _c5549
  _c555
  _c5550
  _c5552
  _c5554
  _c5555
  _c5556
  _c5557
  _c5558
  _c5559
  _c5562
  _c5563
  _c5564
  _c5565
  _c5566
  _c5567
  _c5568
  _c5569
  _c557
  _c5570
  _c5572
  _c5573
  _c5574
  _c5575
  _c5576
  _c5577
  _c5578
  _c5579
  _c558
  _c559
  _c56
  _c560
  _c561
  _c562
  _c563
  _c564
  _c566
  _c567
  _c568
  _c569
  _c57
  _c570
  _c5700
  _c5701
  _c5702
  _c5703
  _c5704
  _c5706
  _c5708
  _c571
  _c5710
  _c5711
  _c5712
  _c5713
  _c572
  _c5722
  _c5728
  _c5729
  _c573
  _c5730
  _c574
  _c5744
  _c5745
  _c5753
  _c5754
  _c576
  _c577
  _c578
  _c579
  _c58
  _c580
  _c581
  _c582
  _c583
  _c585
  _c586
  _c587
  _c588
  _c589
  _c5897
  _c5898
  _c5899
  _c59
  _c590
  _c5900
  _c5901
  _c5902
  _c5903
  _c5904
  _c5905
  _c591
  _c592
  _c594
  _c595
  _c596
  _c597
  _c598
  _c599
  _c6
  _c60
  _c600
  _c601
  _c603
  _c604
  _c605
  _c606
  _c607
  _c608
  _c609
  _c61
  _c610
  _c612
  _c6122
  _c6123
  _c6125
  _c6126
  _c6127
  _c6129
  _c613
  _c6130
  _c614
  _c615
  _c616
  _c617
  _c618
  _c619
  _c62
  _c621
  _c622
  _c623
  _c624
  _c625
  _c626
  _c627
  _c628
  _c63
  _c630
  _c631
  _c632
  _c633
  _c634
  _c635
  _c636
  _c637
  _c638
  _c639
  _c640
  _c641
  _c642
  _c643
  _c644
  _c645
  _c646
  _c648
  _c649
  _c65
  _c650
  _c651
  _c652
  _c653
  _c654
  _c655
  _c656
  _c658
  _c659
  _c66
  _c660
  _c661
  _c662
  _c663
  _c664
  _c665
  _c667
  _c668
  _c669
  _c67
  _c670
  _c671
  _c672
  _c673
  _c674
  _c676
  _c677
  _c678
  _c679
  _c68
  _c680
  _c681
  _c682
  _c683
  _c685
  _c686
  _c687
  _c688
  _c689
  _c69
  _c690
  _c691
  _c692
  _c694
  _c695
  _c696
  _c697
  _c698
  _c699
  _c7
  _c70
  _c700
  _c701
  _c703
  _c704
  _c705
  _c706
  _c707
  _c708
  _c709
  _c71
  _c710
  _c712
  _c713
  _c714
  _c715
  _c716
  _c717
  _c718
  _c719
  _c72
  _c721
  _c722
  _c723
  _c724
  _c725
  _c726
  _c727
  _c728
  _c729
  _c74
  _c7481
  _c7482
  _c7483
  _c7484
  _c7485
  _c7486
  _c7487
  _c7488
  _c7489
  _c7490
  _c7491
  _c7492
  _c7493
  _c7494
  _c7495
  _c7496
  _c7497
  _c7498
  _c7499
  _c75
  _c7500
  _c7501
  _c7502
  _c7503
  _c7504
  _c7505
  _c7506
  _c7507
  _c7508
  _c7509
  _c7510
  _c7511
  _c7512
  _c7513
  _c7515
  _c7516
  _c7517
  _c7518
  _c7519
  _c7520
  _c7521
  _c7522
  _c7523
  _c7524
  _c7525
  _c7526
  _c7527
  _c7528
  _c7530
  _c7531
  _c7532
  _c7533
  _c7534
  _c7535
  _c7536
  _c7537
  _c7538
  _c7539
  _c7540
  _c7541
  _c7542
  _c7543
  _c7544
  _c7553
  _c7554
  _c7555
  _c7556
  _c7557
  _c7558
  _c7559
  _c7561
  _c7562
  _c7563
  _c7564
  _c7565
  _c7566
  _c7568
  _c7569
  _c7570
  _c7571
  _c7572
  _c7573
  _c7576
  _c7577
  _c7578
  _c7579
  _c7580
  _c7582
  _c7583
  _c7584
  _c7586
  _c7587
  _c7589
  _c7590
  _c7591
  _c7592
  _c7594
  _c7596
  _c7597
  _c7598
  _c7599
  _c76
  _c7601
  _c7603
  _c7604
  _c7605
  _c7606
  _c7607
  _c7608
  _c7618
  _c7625
  _c7626
  _c7627
  _c7628
  _c7629
  _c7630
  _c7633
  _c7634
  _c7635
  _c7636
  _c7637
  _c7640
  _c7641
  _c7642
  _c7643
  _c7644
  _c7647
  _c7648
  _c7649
  _c7650
  _c7651
  _c7654
  _c7655
  _c7656
  _c7657
  _c7658
  _c7661
  _c7662
  _c7663
  _c7664
  _c7665
  _c7668
  _c7669
  _c7670
  _c7671
  _c7672
  _c7697
  _c7698
  _c7699
  _c77
  _c7700
  _c7701
  _c7705
  _c7706
  _c7707
  _c7708
  _c7712
  _c7713
  _c7714
  _c7715
  _c7719
  _c7720
  _c7722
  _c7726
  _c7727
  _c7728
  _c7729
  _c7733
  _c7734
  _c7735
  _c7736
  _c7769
  _c7770
  _c7771
  _c7772
  _c7777
  _c7778
  _c7779
  _c7780
  _c7784
  _c7785
  _c7786
  _c7791
  _c7792
  _c7793
  _c7798
  _c7799
  _c78
  _c7800
  _c7841
  _c7842
  _c7843
  _c7845
  _c7850
  _c7856
  _c7857
  _c7863
  _c7864
  _c7877
  _c79
  _c7913
  _c7914
  _c7915
  _c7916
  _c7918
  _c7920
  _c7921
  _c7928
  _c7985
  _c8
  _c80
  _c81
  _c82
  _c84
  _c85
  _c86
  _c87
  _c88
  _c8877
  _c8878
  _c8879
  _c8880
  _c8881
  _c8882
  _c8883
  _c8884
  _c8885
  _c89
  _c8995
  _c8996
  _c8997
  _c8998
  _c8999
  _c9
  _c90
  _c9000
  _c9001
  _c9002
  _c9012
  _c9013
  _c9015
  _c9016
  _c9017
  _c9019
  _c9020
  _c9021
  _c9022
  _c9023
  _c9025
  _c9026
  _c9027
  _c9028
  _c9029
  _c9030
  _c9031
  _c9032
  _c9033
  _c9036
  _c9037
  _c9038
  _c9039
  _c9040
  _c9041
  _c9042
  _c9043
  _c9045
  _c9046
  _c9047
  _c9048
  _c9050
  _c9051
  _c9052
  _c9053
  _c9055
  _c9056
  _c9057
  _c9058
  _c9059
  _c9060
  _c9061
  _c9062
  _c9063
  _c9065
  _c9066
  _c9067
  _c9068
  _c9069
  _c9070
  _c9071
  _c9072
  _c9073
  _c91
  _c93
  _c9372
  _c9373
  _c9374
  _c9375
  _c9376
  _c9377
  _c9378
  _c9379
  _c9380
  _c94
  _c95
  _c96
  _c97
  _c98
  _c99 )
